NAME: random-37-32500
TYPE: TSP
COMMENT: size=37 seed=32500
DIMENSION: 76
EDGE_WEIGHT_TYPE: EUC_2D
NODE_COORD_SECTION
+0 500 222
-0 500 222
+1 842 948
-1 384 239
+2 681 581
-2 439 493
+3 118 419
-3 661 395
+4 136 750
-4 733 716
+5 4 460
-5 273 867
+6 500 625
-6 264 956
+7 207 664
-7 5 163
+8 737 826
-8 466 951
+9 180 299
-9 924 669
+10 384 996
-10 58 852
+11 922 286
-11 384 956
+12 639 99
-12 83 178
+13 631 702
-13 628 83
+14 283 69
-14 797 204
+15 553 788
-15 487 904
+16 445 562
-16 597 644
+17 106 288
-17 16 352
+18 265 247
-18 748 182
+19 593 331
-19 897 443
+20 612 122
-20 295 522
+21 454 880
-21 731 975
+22 646 934
-22 34 615
+23 171 393
-23 483 382
+24 376 697
-24 456 500
+25 586 571
-25 402 635
+26 735 34
-26 34 622
+27 257 600
-27 797 107
+28 619 144
-28 871 198
+29 776 142
-29 484 14
+30 821 672
-30 241 792
+31 669 357
-31 293 341
+32 287 960
-32 931 923
+33 405 479
-33 414 653
+34 573 282
-34 799 293
+35 834 150
-35 122 842
+36 821 252
-36 977 227
+37 982 228
-37 240 955
PRECEDENCE_SECTION
+0 -0
+1 -1
+2 -2
+3 -3
+4 -4
+5 -5
+6 -6
+7 -7
+8 -8
+9 -9
+10 -10
+11 -11
+12 -12
+13 -13
+14 -14
+15 -15
+16 -16
+17 -17
+18 -18
+19 -19
+20 -20
+21 -21
+22 -22
+23 -23
+24 -24
+25 -25
+26 -26
+27 -27
+28 -28
+29 -29
+30 -30
+31 -31
+32 -32
+33 -33
+34 -34
+35 -35
+36 -36
+37 -37
EOF
